(set-logic QF_SLIA)
(declare-fun var0 () String)
(assert (str.in_re var0 (re.++ ((_ re.loop 11 331) (re.++ (re.union (str.to_re "i5Q") (re.union (str.to_re "!{V") (re.union (str.to_re "Gw0") (str.to_re "*")))) (re.++ (re.union (str.to_re "u") (re.union (str.to_re "BQ") (re.union (str.to_re "o>Z") (str.to_re "H(")))) (re.++ (re.union (str.to_re "H]L") (re.union (str.to_re "*\\y") (re.union (str.to_re "3K") (str.to_re "#pE")))) (re.union (str.to_re "A") (re.union (str.to_re "ns") (re.union (str.to_re "P") (str.to_re "`_")))))))) (re.++ ((_ re.loop 5 393) (re.++ (re.union (str.to_re ",~") (re.union (str.to_re "6") (re.union (str.to_re "d") (str.to_re ".}Q")))) (re.++ (re.union (str.to_re "8z") (re.union (str.to_re "={3") (re.union (str.to_re ">k") (str.to_re "i")))) (re.++ (re.union (str.to_re "t") (re.union (str.to_re "u;") (re.union (str.to_re "&") (str.to_re "9")))) (re.union (str.to_re "kJY") (re.union (str.to_re "'-") (re.union (str.to_re "*F") (str.to_re "A")))))))) (re.++ ((_ re.loop 10 262) (re.++ (re.union (str.to_re "=u") (re.union (str.to_re "bfW") (re.union (str.to_re "[I") (str.to_re "AHv")))) (re.++ (re.union (str.to_re "^") (re.union (str.to_re "n<n") (re.union (str.to_re ".") (str.to_re "I$#")))) (re.++ (re.union (str.to_re "(~t") (re.union (str.to_re "w6Z") (re.union (str.to_re "$H]") (str.to_re "Z")))) (re.union (str.to_re "6~#") (re.union (str.to_re "y6_") (re.union (str.to_re "Nat") (str.to_re "Soz")))))))) ((_ re.loop 11 473) (re.++ (re.union (str.to_re "p*") (re.union (str.to_re "P;") (re.union (str.to_re "w!r") (str.to_re "J")))) (re.++ (re.union (str.to_re "@z") (re.union (str.to_re "V") (re.union (str.to_re "G:") (str.to_re "09")))) (re.++ (re.union (str.to_re "80:") (re.union (str.to_re ":M") (re.union (str.to_re "<") (str.to_re "Qa")))) (re.union (str.to_re "S") (re.union (str.to_re "V,") (re.union (str.to_re "1[") (str.to_re "^ye")))))))))))))
(assert (not (str.in_re var0 (re.++ ((_ re.loop 15 580) (re.++ (re.union (str.to_re ":") (re.union (str.to_re "Z") (re.union (str.to_re "mY") (str.to_re "y")))) (re.++ (re.union (str.to_re "$O") (re.union (str.to_re "@") (re.union (str.to_re "I4M") (str.to_re "9^D")))) (re.++ (re.union (str.to_re "qW&") (re.union (str.to_re "?") (re.union (str.to_re "^=B") (str.to_re "pH")))) (re.union (str.to_re "H") (re.union (str.to_re "k") (re.union (str.to_re "t") (str.to_re "F")))))))) (re.++ ((_ re.loop 20 479) (re.++ (re.union (str.to_re "&") (re.union (str.to_re "[P{") (re.union (str.to_re "E\u0022") (str.to_re ".6")))) (re.++ (re.union (str.to_re ">'") (re.union (str.to_re "0") (re.union (str.to_re "k") (str.to_re "3")))) (re.++ (re.union (str.to_re "$nr") (re.union (str.to_re ".r") (re.union (str.to_re "<") (str.to_re "P")))) (re.union (str.to_re "w-") (re.union (str.to_re "_ap") (re.union (str.to_re "@") (str.to_re "%E")))))))) (re.++ ((_ re.loop 18 655) (re.++ (re.union (str.to_re "Ug^") (re.union (str.to_re "oRn") (re.union (str.to_re "p") (str.to_re "=w")))) (re.++ (re.union (str.to_re "$") (re.union (str.to_re ":") (re.union (str.to_re "qq`") (str.to_re "$%)")))) (re.++ (re.union (str.to_re "d") (re.union (str.to_re "t") (re.union (str.to_re "f") (str.to_re "__v")))) (re.union (str.to_re "@z4") (re.union (str.to_re "oMG") (re.union (str.to_re "d}%") (str.to_re ";a")))))))) ((_ re.loop 4 294) (re.++ (re.union (str.to_re "O") (re.union (str.to_re "U,") (re.union (str.to_re "fkZ") (str.to_re "'")))) (re.++ (re.union (str.to_re "QQ3") (re.union (str.to_re "_[") (re.union (str.to_re "^i") (str.to_re "N")))) (re.++ (re.union (str.to_re "9") (re.union (str.to_re "g") (re.union (str.to_re "!B") (str.to_re ":dJ")))) (re.union (str.to_re "H") (re.union (str.to_re "{un") (re.union (str.to_re "=`") (str.to_re "3"))))))))))))))
(assert (not (str.in_re var0 (re.++ (re.* re.allchar) (re.++ (re.union (str.to_re "<") (re.union (str.to_re ">") (re.union (str.to_re "'") (re.union (str.to_re "\u0022") (str.to_re "&"))))) (re.* re.allchar))))))
(assert (<= 50 (str.len var0)))
(check-sat)
(get-model)
